\ Model Dynamic Economic Dispatch_copy
\ LP format - for model browsing. Use MPS format to capture full model detail.
Minimize
  + 342 Constant
Subject To
 DemandConst: Power[Gen1] + Power[Gen2] + Power[Gen3] + Power[Gen4] = 510
 DemandConst: Power[Gen1] + Power[Gen2] + Power[Gen3] + Power[Gen4] = 761
Bounds
 Power[Gen1] free
 Power[Gen2] free
 Power[Gen3] free
 Power[Gen4] free
 Constant = 1
End
